db/data/234917929537311156109251721308722612.z3.out
-------------------
2500.135673567
